NAME: Random ATSP Instance
TYPE: ATSP
DIMENSION: 10
EDGE_WEIGHT_TYPE: EXPLICIT
EDGE_WEIGHT_FORMAT: FULL_MATRIX
EDGE_WEIGHT_SECTION
9999 11 6 13 14 18 2 14 18 13
13 9999 14 14 11 7 9 4 3 5
8 14 9999 3 19 2 4 15 5 3
19 20 13 9999 12 18 16 4 12 4
13 13 6 9 9999 20 6 8 15 1
3 6 9 3 11 9999 15 7 18 19
1 5 6 16 12 13 9999 16 8 9
6 17 12 19 15 19 19 9999 10 20
13 2 10 20 12 4 10 11 9999 2
18 5 20 4 18 20 13 11 7 9999
EOF
